Code 1434
Dimension, Median
   128       16
 Facility, Client, Transportation Cost
     1        1           0
     1        2           4
     1        3           4
     1        5           4
     1        9           1
     1       17           3
     1       33           0
     1       65           1
     2        1           3
     2        2           2
     2        4           2
     2        6           3
     2       10           4
     2       18           2
     2       34           2
     2       66           1
     3        1           4
     3        3           0
     3        4           4
     3        7           2
     3       11           2
     3       19           3
     3       35           0
     3       67           4
     4        2           1
     4        3           4
     4        4           0
     4        8           3
     4       12           4
     4       20           2
     4       36           1
     4       68           3
     5        1           0
     5        5           3
     5        6           4
     5        7           3
     5       13           3
     5       21           4
     5       37           1
     5       69           0
     6        2           3
     6        5           0
     6        6           1
     6        8           1
     6       14           4
     6       22           1
     6       38           3
     6       70           3
     7        3           3
     7        5           0
     7        7           3
     7        8           2
     7       15           1
     7       23           4
     7       39           2
     7       71           3
     8        4           2
     8        6           0
     8        7           0
     8        8           4
     8       16           1
     8       24           3
     8       40           4
     8       72           2
     9        1           3
     9        9           0
     9       10           3
     9       11           3
     9       13           1
     9       25           1
     9       41           4
     9       73           0
    10        2           2
    10        9           3
    10       10           4
    10       12           2
    10       14           4
    10       26           3
    10       42           1
    10       74           1
    11        3           2
    11        9           0
    11       11           2
    11       12           4
    11       15           2
    11       27           0
    11       43           2
    11       75           4
    12        4           3
    12       10           0
    12       11           4
    12       12           3
    12       16           1
    12       28           2
    12       44           3
    12       76           3
    13        5           4
    13        9           1
    13       13           1
    13       14           2
    13       15           2
    13       29           1
    13       45           0
    13       77           4
    14        6           4
    14       10           4
    14       13           4
    14       14           2
    14       16           4
    14       30           0
    14       46           4
    14       78           1
    15        7           3
    15       11           4
    15       13           3
    15       15           2
    15       16           2
    15       31           4
    15       47           0
    15       79           1
    16        8           4
    16       12           0
    16       14           4
    16       15           1
    16       16           2
    16       32           2
    16       48           0
    16       80           0
    17        1           2
    17       17           2
    17       18           1
    17       19           3
    17       21           2
    17       25           4
    17       49           3
    17       81           3
    18        2           0
    18       17           4
    18       18           2
    18       20           3
    18       22           1
    18       26           3
    18       50           2
    18       82           3
    19        3           3
    19       17           3
    19       19           0
    19       20           3
    19       23           1
    19       27           4
    19       51           2
    19       83           3
    20        4           3
    20       18           2
    20       19           3
    20       20           2
    20       24           1
    20       28           2
    20       52           4
    20       84           0
    21        5           4
    21       17           4
    21       21           1
    21       22           2
    21       23           1
    21       29           1
    21       53           3
    21       85           1
    22        6           4
    22       18           3
    22       21           2
    22       22           0
    22       24           0
    22       30           2
    22       54           3
    22       86           4
    23        7           4
    23       19           0
    23       21           1
    23       23           4
    23       24           1
    23       31           2
    23       55           2
    23       87           3
    24        8           1
    24       20           1
    24       22           2
    24       23           2
    24       24           3
    24       32           4
    24       56           4
    24       88           4
    25        9           1
    25       17           1
    25       25           0
    25       26           0
    25       27           1
    25       29           3
    25       57           2
    25       89           0
    26       10           3
    26       18           0
    26       25           1
    26       26           0
    26       28           2
    26       30           2
    26       58           2
    26       90           1
    27       11           1
    27       19           0
    27       25           3
    27       27           0
    27       28           4
    27       31           4
    27       59           4
    27       91           3
    28       12           4
    28       20           1
    28       26           0
    28       27           4
    28       28           4
    28       32           3
    28       60           4
    28       92           1
    29       13           3
    29       21           2
    29       25           4
    29       29           1
    29       30           3
    29       31           4
    29       61           1
    29       93           2
    30       14           2
    30       22           0
    30       26           2
    30       29           2
    30       30           1
    30       32           3
    30       62           1
    30       94           3
    31       15           4
    31       23           2
    31       27           0
    31       29           3
    31       31           3
    31       32           3
    31       63           1
    31       95           3
    32       16           1
    32       24           3
    32       28           2
    32       30           2
    32       31           3
    32       32           4
    32       64           0
    32       96           3
    33        1           4
    33       33           4
    33       34           0
    33       35           2
    33       37           0
    33       41           2
    33       49           3
    33       97           4
    34        2           2
    34       33           1
    34       34           0
    34       36           0
    34       38           3
    34       42           0
    34       50           2
    34       98           2
    35        3           3
    35       33           2
    35       35           2
    35       36           2
    35       39           3
    35       43           4
    35       51           0
    35       99           4
    36        4           4
    36       34           4
    36       35           0
    36       36           3
    36       40           2
    36       44           1
    36       52           4
    36      100           0
    37        5           4
    37       33           1
    37       37           0
    37       38           0
    37       39           4
    37       45           1
    37       53           3
    37      101           4
    38        6           4
    38       34           0
    38       37           3
    38       38           4
    38       40           2
    38       46           0
    38       54           1
    38      102           3
    39        7           2
    39       35           2
    39       37           0
    39       39           4
    39       40           1
    39       47           3
    39       55           2
    39      103           4
    40        8           4
    40       36           0
    40       38           4
    40       39           0
    40       40           1
    40       48           0
    40       56           1
    40      104           0
    41        9           3
    41       33           2
    41       41           1
    41       42           3
    41       43           4
    41       45           0
    41       57           4
    41      105           2
    42       10           0
    42       34           3
    42       41           1
    42       42           1
    42       44           3
    42       46           0
    42       58           4
    42      106           0
    43       11           2
    43       35           1
    43       41           0
    43       43           0
    43       44           1
    43       47           4
    43       59           2
    43      107           1
    44       12           4
    44       36           4
    44       42           4
    44       43           0
    44       44           0
    44       48           4
    44       60           2
    44      108           0
    45       13           1
    45       37           1
    45       41           0
    45       45           2
    45       46           1
    45       47           0
    45       61           1
    45      109           1
    46       14           4
    46       38           3
    46       42           0
    46       45           0
    46       46           0
    46       48           1
    46       62           4
    46      110           1
    47       15           3
    47       39           1
    47       43           4
    47       45           1
    47       47           2
    47       48           0
    47       63           0
    47      111           4
    48       16           3
    48       40           3
    48       44           0
    48       46           3
    48       47           4
    48       48           0
    48       64           0
    48      112           0
    49       17           4
    49       33           1
    49       49           1
    49       50           2
    49       51           2
    49       53           0
    49       57           1
    49      113           2
    50       18           2
    50       34           1
    50       49           2
    50       50           2
    50       52           2
    50       54           0
    50       58           0
    50      114           4
    51       19           1
    51       35           3
    51       49           4
    51       51           4
    51       52           2
    51       55           4
    51       59           3
    51      115           1
    52       20           2
    52       36           0
    52       50           3
    52       51           1
    52       52           0
    52       56           4
    52       60           3
    52      116           3
    53       21           3
    53       37           0
    53       49           2
    53       53           4
    53       54           3
    53       55           1
    53       61           0
    53      117           1
    54       22           2
    54       38           2
    54       50           2
    54       53           4
    54       54           2
    54       56           4
    54       62           4
    54      118           0
    55       23           1
    55       39           1
    55       51           2
    55       53           1
    55       55           3
    55       56           0
    55       63           0
    55      119           4
    56       24           1
    56       40           0
    56       52           2
    56       54           3
    56       55           2
    56       56           3
    56       64           3
    56      120           4
    57       25           3
    57       41           4
    57       49           2
    57       57           2
    57       58           2
    57       59           1
    57       61           1
    57      121           4
    58       26           3
    58       42           0
    58       50           3
    58       57           2
    58       58           0
    58       60           1
    58       62           4
    58      122           4
    59       27           0
    59       43           3
    59       51           0
    59       57           4
    59       59           3
    59       60           3
    59       63           2
    59      123           2
    60       28           3
    60       44           3
    60       52           1
    60       58           4
    60       59           4
    60       60           3
    60       64           2
    60      124           4
    61       29           0
    61       45           0
    61       53           0
    61       57           1
    61       61           2
    61       62           3
    61       63           2
    61      125           0
    62       30           1
    62       46           0
    62       54           3
    62       58           2
    62       61           3
    62       62           4
    62       64           4
    62      126           1
    63       31           2
    63       47           0
    63       55           3
    63       59           0
    63       61           4
    63       63           1
    63       64           1
    63      127           3
    64       32           1
    64       48           0
    64       56           4
    64       60           3
    64       62           0
    64       63           0
    64       64           4
    64      128           0
    65        1           1
    65       65           4
    65       66           1
    65       67           3
    65       69           3
    65       73           3
    65       81           4
    65       97           1
    66        2           0
    66       65           2
    66       66           2
    66       68           3
    66       70           4
    66       74           3
    66       82           0
    66       98           4
    67        3           1
    67       65           2
    67       67           4
    67       68           4
    67       71           3
    67       75           2
    67       83           1
    67       99           3
    68        4           4
    68       66           4
    68       67           0
    68       68           3
    68       72           1
    68       76           2
    68       84           0
    68      100           3
    69        5           1
    69       65           3
    69       69           4
    69       70           3
    69       71           3
    69       77           3
    69       85           4
    69      101           1
    70        6           4
    70       66           1
    70       69           0
    70       70           1
    70       72           2
    70       78           0
    70       86           1
    70      102           4
    71        7           2
    71       67           0
    71       69           1
    71       71           3
    71       72           2
    71       79           2
    71       87           2
    71      103           0
    72        8           1
    72       68           3
    72       70           1
    72       71           3
    72       72           1
    72       80           2
    72       88           3
    72      104           2
    73        9           3
    73       65           3
    73       73           1
    73       74           2
    73       75           4
    73       77           0
    73       89           1
    73      105           4
    74       10           1
    74       66           4
    74       73           2
    74       74           4
    74       76           4
    74       78           3
    74       90           1
    74      106           0
    75       11           1
    75       67           3
    75       73           4
    75       75           3
    75       76           2
    75       79           0
    75       91           1
    75      107           3
    76       12           0
    76       68           4
    76       74           4
    76       75           0
    76       76           1
    76       80           3
    76       92           1
    76      108           3
    77       13           3
    77       69           1
    77       73           1
    77       77           2
    77       78           4
    77       79           4
    77       93           0
    77      109           2
    78       14           0
    78       70           3
    78       74           4
    78       77           0
    78       78           2
    78       80           3
    78       94           1
    78      110           1
    79       15           1
    79       71           4
    79       75           2
    79       77           3
    79       79           1
    79       80           0
    79       95           2
    79      111           2
    80       16           2
    80       72           4
    80       76           3
    80       78           0
    80       79           1
    80       80           4
    80       96           0
    80      112           3
    81       17           3
    81       65           4
    81       81           0
    81       82           1
    81       83           1
    81       85           4
    81       89           3
    81      113           3
    82       18           0
    82       66           1
    82       81           1
    82       82           2
    82       84           4
    82       86           0
    82       90           3
    82      114           2
    83       19           0
    83       67           1
    83       81           1
    83       83           2
    83       84           4
    83       87           4
    83       91           1
    83      115           1
    84       20           1
    84       68           3
    84       82           2
    84       83           0
    84       84           0
    84       88           1
    84       92           3
    84      116           1
    85       21           0
    85       69           0
    85       81           2
    85       85           3
    85       86           2
    85       87           4
    85       93           4
    85      117           1
    86       22           4
    86       70           1
    86       82           0
    86       85           3
    86       86           1
    86       88           3
    86       94           3
    86      118           1
    87       23           1
    87       71           2
    87       83           1
    87       85           1
    87       87           1
    87       88           4
    87       95           4
    87      119           1
    88       24           0
    88       72           2
    88       84           0
    88       86           1
    88       87           2
    88       88           4
    88       96           3
    88      120           2
    89       25           2
    89       73           4
    89       81           2
    89       89           4
    89       90           3
    89       91           1
    89       93           3
    89      121           3
    90       26           3
    90       74           1
    90       82           2
    90       89           4
    90       90           0
    90       92           3
    90       94           1
    90      122           1
    91       27           1
    91       75           1
    91       83           3
    91       89           1
    91       91           4
    91       92           0
    91       95           1
    91      123           4
    92       28           1
    92       76           1
    92       84           0
    92       90           2
    92       91           2
    92       92           4
    92       96           2
    92      124           2
    93       29           0
    93       77           0
    93       85           2
    93       89           3
    93       93           3
    93       94           0
    93       95           3
    93      125           1
    94       30           2
    94       78           0
    94       86           0
    94       90           1
    94       93           2
    94       94           4
    94       96           0
    94      126           3
    95       31           1
    95       79           1
    95       87           3
    95       91           1
    95       93           3
    95       95           1
    95       96           0
    95      127           1
    96       32           3
    96       80           1
    96       88           3
    96       92           4
    96       94           2
    96       95           4
    96       96           1
    96      128           4
    97       33           3
    97       65           3
    97       97           1
    97       98           0
    97       99           1
    97      101           0
    97      105           1
    97      113           4
    98       34           2
    98       66           0
    98       97           2
    98       98           0
    98      100           4
    98      102           4
    98      106           0
    98      114           0
    99       35           3
    99       67           0
    99       97           3
    99       99           0
    99      100           4
    99      103           4
    99      107           0
    99      115           1
   100       36           1
   100       68           1
   100       98           4
   100       99           0
   100      100           3
   100      104           0
   100      108           4
   100      116           0
   101       37           3
   101       69           3
   101       97           1
   101      101           4
   101      102           0
   101      103           1
   101      109           3
   101      117           2
   102       38           2
   102       70           4
   102       98           3
   102      101           1
   102      102           1
   102      104           4
   102      110           0
   102      118           4
   103       39           4
   103       71           2
   103       99           0
   103      101           0
   103      103           0
   103      104           1
   103      111           4
   103      119           1
   104       40           0
   104       72           4
   104      100           4
   104      102           4
   104      103           0
   104      104           4
   104      112           3
   104      120           4
   105       41           3
   105       73           0
   105       97           1
   105      105           2
   105      106           1
   105      107           0
   105      109           1
   105      121           0
   106       42           0
   106       74           1
   106       98           0
   106      105           3
   106      106           4
   106      108           1
   106      110           0
   106      122           4
   107       43           1
   107       75           1
   107       99           2
   107      105           1
   107      107           2
   107      108           2
   107      111           2
   107      123           2
   108       44           3
   108       76           4
   108      100           3
   108      106           0
   108      107           0
   108      108           1
   108      112           3
   108      124           4
   109       45           2
   109       77           3
   109      101           0
   109      105           2
   109      109           4
   109      110           2
   109      111           0
   109      125           4
   110       46           0
   110       78           4
   110      102           4
   110      106           1
   110      109           4
   110      110           1
   110      112           3
   110      126           0
   111       47           2
   111       79           0
   111      103           0
   111      107           3
   111      109           0
   111      111           3
   111      112           1
   111      127           3
   112       48           2
   112       80           4
   112      104           3
   112      108           3
   112      110           3
   112      111           4
   112      112           4
   112      128           1
   113       49           4
   113       81           2
   113       97           3
   113      113           1
   113      114           0
   113      115           3
   113      117           2
   113      121           0
   114       50           1
   114       82           1
   114       98           1
   114      113           2
   114      114           1
   114      116           0
   114      118           0
   114      122           1
   115       51           0
   115       83           3
   115       99           0
   115      113           0
   115      115           2
   115      116           0
   115      119           0
   115      123           0
   116       52           0
   116       84           3
   116      100           1
   116      114           2
   116      115           3
   116      116           0
   116      120           2
   116      124           0
   117       53           4
   117       85           3
   117      101           3
   117      113           1
   117      117           4
   117      118           1
   117      119           2
   117      125           0
   118       54           1
   118       86           2
   118      102           4
   118      114           1
   118      117           4
   118      118           4
   118      120           3
   118      126           4
   119       55           2
   119       87           3
   119      103           3
   119      115           1
   119      117           2
   119      119           1
   119      120           3
   119      127           3
   120       56           4
   120       88           3
   120      104           3
   120      116           3
   120      118           2
   120      119           3
   120      120           3
   120      128           3
   121       57           0
   121       89           1
   121      105           1
   121      113           2
   121      121           3
   121      122           4
   121      123           1
   121      125           3
   122       58           0
   122       90           4
   122      106           3
   122      114           3
   122      121           4
   122      122           3
   122      124           3
   122      126           1
   123       59           1
   123       91           1
   123      107           4
   123      115           4
   123      121           0
   123      123           1
   123      124           3
   123      127           1
   124       60           2
   124       92           4
   124      108           3
   124      116           2
   124      122           2
   124      123           4
   124      124           2
   124      128           0
   125       61           4
   125       93           1
   125      109           2
   125      117           0
   125      121           4
   125      125           3
   125      126           1
   125      127           2
   126       62           1
   126       94           2
   126      110           4
   126      118           1
   126      122           0
   126      125           2
   126      126           4
   126      128           2
   127       63           1
   127       95           4
   127      111           3
   127      119           2
   127      123           4
   127      125           0
   127      127           2
   127      128           1
   128       64           4
   128       96           4
   128      112           2
   128      120           3
   128      124           0
   128      126           1
   128      127           3
   128      128           1
